; 
(set-info :status unknown)
(declare-fun carg_node_0x7ffff2b83440 () (_ BitVec 64))
(declare-fun StMem_0x7ffff2baf4a0 () (_ BitVec 64))
(declare-fun node_0x7ffff2b84430 () (_ BitVec 1))
(declare-fun node_0x7ffff2b84700 () (_ BitVec 1))
(declare-fun node_0x7ffff2b85d10 () (_ BitVec 1))
(declare-fun node_0x7ffff2b868b0 () (_ BitVec 1))
(declare-fun node_0x7ffff2b874e0 () (_ BitVec 1))
(declare-fun node_0x7ffff2b8c520 () (_ BitVec 1))
(declare-fun node_0x7ffff2b8e5c0 () (_ BitVec 1))
(declare-fun node_0x7ffff2b91e50 () (_ BitVec 1))
(declare-fun R0x7ffff2b941e0 () (_ BitVec 1))
(declare-fun LdMem_0x197c23f0 () (_ BitVec 64))
(declare-fun or_0x7ffff2b94510 () (_ BitVec 1))
(declare-fun R0x7ffff2b93bc0 () (_ BitVec 1))
(declare-fun R0x7ffff2b930b0 () (_ BitVec 1))
(declare-fun and_0x7ffff2b93430 () (_ BitVec 1))
(declare-fun R0x7ffff2b92b90 () (_ BitVec 1))
(declare-fun R0x7ffff2b85620 () (_ BitVec 1))
(declare-fun or_0x7ffff2b85930 () (_ BitVec 1))
(declare-fun R0x7ffff2b84fe0 () (_ BitVec 1))
(declare-fun R0x7ffff2b848f0 () (_ BitVec 1))
(declare-fun xor_0x7ffff2b84b00 () (_ BitVec 1))
(declare-fun ccso_node_0x7ffff2bd6620 () (_ BitVec 32))
(declare-fun islt_0x7ffff2bd6840 () (_ BitVec 1))
(declare-fun and_0x7ffff2b85300 () (_ BitVec 1))
(declare-fun R0x7ffff2b83ef0 () (_ BitVec 1))
(declare-fun R0x7ffff2b84e00 () (_ BitVec 1))
(declare-fun xor_0x7ffff2b83a60 () (_ BitVec 1))
(declare-fun ccso_node_0x7ffff2bd8ac0 () (_ BitVec 32))
(declare-fun islt_0x7ffff2bd8ce0 () (_ BitVec 1))
(declare-fun xor_0x7ffff2b92da0 () (_ BitVec 1))
(declare-fun islt_0x7ffff2bd9150 () (_ BitVec 1))
(declare-fun node_0x7ffff2bc15c0 () (_ BitVec 32))
(declare-fun f2si_0x7ffff2bc1760 () (_ BitVec 32))
(declare-fun node_0x7ffff2bc1210 () (_ BitVec 64))
(declare-fun fadd_0x7ffff2bc1390 () (_ BitVec 64))
(declare-fun node_0x7ffff2bc0df0 () (_ BitVec 64))
(declare-fun fdiv_0x7ffff2bc0f90 () (_ BitVec 64))
(declare-fun fmul_0x7ffff2bbbeb0 () (_ BitVec 64))
(declare-fun node_0x7ffff2bbbd50 () (_ BitVec 64))
(declare-fun ccso_node_0x7ffff2bbb910 () (_ BitVec 64))
(declare-fun node_0x7ffff2bba980 () (_ BitVec 64))
(declare-fun fdiv_0x7ffff2bbab20 () (_ BitVec 64))
(declare-fun node_0x7ffff2bb8dc0 () (_ BitVec 64))
(declare-fun LdMem_0x7ffff2bb8f40 () (_ BitVec 64))
(declare-fun R0x7ffff2b827c0 () (_ BitVec 1))
(declare-fun node_0x7ffff2bb5b00 () (_ BitVec 64))
(declare-fun fsub_0x7ffff2bb5ca0 () (_ BitVec 64))
(declare-fun LdMem_0x7ffff2bb5830 () (_ BitVec 64))
(declare-fun node_0x7ffff2bb56b0 () (_ BitVec 64))
(declare-fun pcso_node_0xbd64880 () (_ BitVec 64))
(declare-fun StMem_0x19689e90 () (_ BitVec 64))
(declare-fun node_0x7ffff2bb4e90 () (_ BitVec 64))
(declare-fun LdMem_0x7ffff2bb5010 () (_ BitVec 64))
(declare-fun pcso_node_0x196dad70 () (_ BitVec 64))
(declare-fun StMem_0xbd62f80 () (_ BitVec 64))
(declare-fun and_0x7ffff2b93fa0 () (_ BitVec 1))
(declare-fun xor_0x7ffff2b938b0 () (_ BitVec 1))
(declare-fun R0x7ffff2b93670 () (_ BitVec 1))
(declare-fun islt_0x7ffff2be8e60 () (_ BitVec 1))
(declare-fun R0x7ffff2b90ab0 () (_ BitVec 1))
(declare-fun or_0x7ffff2b90e20 () (_ BitVec 1))
(declare-fun R0x7ffff2b90450 () (_ BitVec 1))
(declare-fun R0x7ffff2b8f900 () (_ BitVec 1))
(declare-fun and_0x7ffff2b8fcc0 () (_ BitVec 1))
(declare-fun R0x7ffff2b8f450 () (_ BitVec 1))
(declare-fun R0x7ffff2b86230 () (_ BitVec 1))
(declare-fun and_0x7ffff2b86540 () (_ BitVec 1))
(declare-fun R0x7ffff2b85ed0 () (_ BitVec 1))
(declare-fun xor_0x7ffff2b8f660 () (_ BitVec 1))
(declare-fun islt_0x7ffff2bd9550 () (_ BitVec 1))
(declare-fun node_0x7ffff2bc21e0 () (_ BitVec 32))
(declare-fun f2si_0x7ffff2bc2380 () (_ BitVec 32))
(declare-fun node_0x7ffff2bc1e30 () (_ BitVec 64))
(declare-fun fadd_0x7ffff2bc1fb0 () (_ BitVec 64))
(declare-fun node_0x7ffff2bc1a00 () (_ BitVec 64))
(declare-fun fdiv_0x7ffff2bc1ba0 () (_ BitVec 64))
(declare-fun node_0x7ffff2bb6fd0 () (_ BitVec 64))
(declare-fun fsub_0x7ffff2bb7170 () (_ BitVec 64))
(declare-fun LdMem_0x7ffff2bb6d00 () (_ BitVec 64))
(declare-fun node_0x7ffff2bb6b80 () (_ BitVec 64))
(declare-fun pcso_node_0xbda11c0 () (_ BitVec 64))
(declare-fun StMem_0xbd64aa0 () (_ BitVec 64))
(declare-fun node_0x7ffff2bb6300 () (_ BitVec 64))
(declare-fun LdMem_0x7ffff2bb6480 () (_ BitVec 64))
(declare-fun pcso_node_0x196daeb0 () (_ BitVec 64))
(declare-fun StMem_0xbda29e0 () (_ BitVec 64))
(declare-fun and_0x7ffff2b90870 () (_ BitVec 1))
(declare-fun xor_0x7ffff2b90140 () (_ BitVec 1))
(declare-fun R0x7ffff2b8ff00 () (_ BitVec 1))
(declare-fun islt_0x7ffff2be8250 () (_ BitVec 1))
(declare-fun R0x7ffff2b8de80 () (_ BitVec 1))
(declare-fun or_0x7ffff2b8e230 () (_ BitVec 1))
(declare-fun and_0x7ffff2b8dc40 () (_ BitVec 1))
(declare-fun R0x7ffff2b8d800 () (_ BitVec 1))
(declare-fun xor_0x7ffff2b8d4f0 () (_ BitVec 1))
(declare-fun R0x7ffff2b8d2b0 () (_ BitVec 1))
(declare-fun node_0x7ffff2bc2df0 () (_ BitVec 32))
(declare-fun islt_0x7ffff2be7e30 () (_ BitVec 1))
(declare-fun R0x7ffff2b87990 () (_ BitVec 1))
(declare-fun and_0x7ffff2b87d20 () (_ BitVec 1))
(declare-fun R0x7ffff2b876a0 () (_ BitVec 1))
(declare-fun R0x7ffff2b86dd0 () (_ BitVec 1))
(declare-fun R0x7ffff2b8cc70 () (_ BitVec 1))
(declare-fun and_0x7ffff2b8d070 () (_ BitVec 1))
(declare-fun R0x7ffff2b8c750 () (_ BitVec 1))
(declare-fun and_0x7ffff2b87120 () (_ BitVec 1))
(declare-fun R0x7ffff2b86a70 () (_ BitVec 1))
(declare-fun xor_0x7ffff2b8c960 () (_ BitVec 1))
(declare-fun islt_0x7ffff2bd98c0 () (_ BitVec 1))
(declare-fun f2si_0x7ffff2bc2f90 () (_ BitVec 32))
(declare-fun node_0x7ffff2bc2a20 () (_ BitVec 64))
(declare-fun fadd_0x7ffff2bc2bc0 () (_ BitVec 64))
(declare-fun node_0x7ffff2bc2620 () (_ BitVec 64))
(declare-fun fdiv_0x7ffff2bc27c0 () (_ BitVec 64))
(declare-fun node_0x7ffff2bb8480 () (_ BitVec 64))
(declare-fun fsub_0x7ffff2bb8620 () (_ BitVec 64))
(declare-fun LdMem_0x7ffff2bb81b0 () (_ BitVec 64))
(declare-fun node_0x7ffff2bb8010 () (_ BitVec 64))
(declare-fun pcso_node_0xbdb5b20 () (_ BitVec 64))
(declare-fun StMem_0xbdb5ca0 () (_ BitVec 64))
(declare-fun node_0x7ffff2bb77a0 () (_ BitVec 64))
(declare-fun LdMem_0x7ffff2bb7940 () (_ BitVec 64))
(declare-fun pcso_node_0x196daff0 () (_ BitVec 64))
(declare-fun StMem_0xbdac0c0 () (_ BitVec 64))
(declare-fun node_0x196eeb60 () (_ BitVec 32))
(declare-fun parg_node_0x1151b690_CS0x4041bb0 () (_ BitVec 32))
(declare-fun LdMem_0x196eca10 () (_ BitVec 32))
(declare-fun parg_node_0x196dbd50 () (_ BitVec 32))
(declare-fun StMem_0x196dbc40 () (_ BitVec 32))
(declare-fun return_node_0x7ffff2c309b0_CS0x4041bb0 () (_ BitVec 32))
(declare-fun node_0x19704cf0 () (_ BitVec 32))
(declare-fun parg_node_0x1151b690_CS0x4049a80 () (_ BitVec 32))
(declare-fun LdMem_0x19702970 () (_ BitVec 32))
(declare-fun return_node_0x7ffff2c309b0_CS0x4049a80 () (_ BitVec 32))
(declare-fun node_0x196dac30 () (_ BitVec 64))
(declare-fun parg_node_0x195bba20_CS0x403bd28 () (_ BitVec 64))
(declare-fun LdMem_0x196d8ae0 () (_ BitVec 64))
(declare-fun pcso_node_0xbd58cb0 () (_ BitVec 64))
(declare-fun StMem_0xbd58e90 () (_ BitVec 64))
(declare-fun node_0x196d99c0 () (_ BitVec 64))
(declare-fun parg_node_0x195bbc60_CS0x403bd28 () (_ BitVec 64))
(declare-fun LdMem_0x196d94a0 () (_ BitVec 64))
(declare-fun parg_node_0xbd426c0 () (_ BitVec 64))
(declare-fun StMem_0x196d9610 () (_ BitVec 64))
(declare-fun node_0x195bd300_CS0x403bd28 () (_ BitVec 64))
(declare-fun node_0xbda00c0 () (_ BitVec 64))
(declare-fun parg_node_0x17ed9da0_CS0x403bb38 () (_ BitVec 64))
(declare-fun LdMem_0x196d8670 () (_ BitVec 64))
(declare-fun pcso_node_0x196d78f0 () (_ BitVec 64))
(declare-fun StMem_0x196d7a70 () (_ BitVec 64))
(declare-fun node_0xbd5efa0 () (_ BitVec 64))
(declare-fun parg_node_0x17ed9fe0_CS0x403bb38 () (_ BitVec 64))
(declare-fun LdMem_0xbda72f0 () (_ BitVec 64))
(declare-fun parg_node_0xbd420c0 () (_ BitVec 64))
(declare-fun StMem_0xbdb3a40 () (_ BitVec 64))
(declare-fun node_0x17edabf0_CS0x403bb38 () (_ BitVec 64))
(declare-fun node_0x196d8e80 () (_ BitVec 64))
(declare-fun parg_node_0x195bbf90_CS0x403bd28 () (_ BitVec 64))
(declare-fun LdMem_0x196d8c20 () (_ BitVec 64))
(declare-fun pcso_node_0xbdc3aa0 () (_ BitVec 64))
(declare-fun StMem_0xbdc3c50 () (_ BitVec 64))
(declare-fun node_0x196da0e0 () (_ BitVec 64))
(declare-fun parg_node_0x195bc4b0_CS0x403bd28 () (_ BitVec 64))
(declare-fun LdMem_0x196d9bc0 () (_ BitVec 64))
(declare-fun parg_node_0xbd501c0 () (_ BitVec 64))
(declare-fun StMem_0x196d9d30 () (_ BitVec 64))
(declare-fun node_0x195bd980_CS0x403bd28 () (_ BitVec 64))
(declare-fun node_0xbd42540 () (_ BitVec 64))
(declare-fun parg_node_0x17eda220_CS0x403bb38 () (_ BitVec 64))
(declare-fun LdMem_0xbd41d50 () (_ BitVec 64))
(declare-fun pcso_node_0x196d7be0 () (_ BitVec 64))
(declare-fun StMem_0x196d7d60 () (_ BitVec 64))
(declare-fun node_0xbd4ffc0 () (_ BitVec 64))
(declare-fun parg_node_0x17eda640_CS0x403bb38 () (_ BitVec 64))
(declare-fun LdMem_0xbd67200 () (_ BitVec 64))
(declare-fun parg_node_0xbd5f240 () (_ BitVec 64))
(declare-fun StMem_0xbd41ad0 () (_ BitVec 64))
(declare-fun node_0x17edaed0_CS0x403bb38 () (_ BitVec 64))
(declare-fun node_0x197c21f0 () (_ BitVec 64))
(assert
 (= StMem_0x7ffff2baf4a0 carg_node_0x7ffff2b83440))
(assert
 (let (($x128 (= node_0x7ffff2b84430 (_ bv1 1))))
 (let (($x134 (or (not $x128) (and (not (= node_0x7ffff2b84700 (_ bv1 1))) $x128))))
 (let (($x127 (= node_0x7ffff2b85d10 (_ bv1 1))))
 (let (($x142 (and $x127 $x134)))
 (let (($x125 (= node_0x7ffff2b868b0 (_ bv1 1))))
 (let (($x226 (and $x125 $x142)))
 (let (($x123 (= node_0x7ffff2b874e0 (_ bv1 1))))
 (let (($x273 (and $x123 $x226)))
 (let (($x157893 (or (and (not $x123) $x226) (and (not (= node_0x7ffff2b8c520 (_ bv1 1))) $x273))))
 (let (($x160484 (or (and (not $x125) $x142) (and (not (= node_0x7ffff2b8e5c0 (_ bv1 1))) $x157893))))
 (let (($x158506 (or (and (not $x127) $x134) (and (not (= node_0x7ffff2b91e50 (_ bv1 1))) $x160484))))
 (let (($x2283 (= R0x7ffff2b941e0 (_ bv1 1))))
 (and $x2283 $x158506))))))))))))))
(assert
 (let (($x872 (= LdMem_0x197c23f0 StMem_0x7ffff2baf4a0)))
 (let (($x158691 (= or_0x7ffff2b94510 (bvor R0x7ffff2b930b0 R0x7ffff2b93bc0))))
 (let (($x2291 (= R0x7ffff2b930b0 and_0x7ffff2b93430)))
 (let (($x158630 (= and_0x7ffff2b93430 (bvand R0x7ffff2b85620 R0x7ffff2b92b90))))
 (let (($x2295 (= R0x7ffff2b85620 or_0x7ffff2b85930)))
 (let ((?x157767 (bvor R0x7ffff2b848f0 R0x7ffff2b84fe0)))
 (let (($x157768 (= or_0x7ffff2b85930 ?x157767)))
 (let (($x1176 (= R0x7ffff2b848f0 xor_0x7ffff2b84b00)))
 (let (($x157772 (= xor_0x7ffff2b84b00 (bvxor node_0x7ffff2b84430 (_ bv1 1)))))
 (let (($x69 (= islt_0x7ffff2bd6840 (ite (bvslt (_ bv0 32) ccso_node_0x7ffff2bd6620) (_ bv1 1) (_ bv0 1)))))
 (let (($x1579 (= R0x7ffff2b84fe0 and_0x7ffff2b85300)))
 (let (($x1717 (= R0x7ffff2b83ef0 node_0x7ffff2b84430)))
 (let (($x157777 (= and_0x7ffff2b85300 (bvand R0x7ffff2b83ef0 R0x7ffff2b84e00))))
 (let (($x1589 (= R0x7ffff2b84e00 xor_0x7ffff2b83a60)))
 (let (($x157781 (= xor_0x7ffff2b83a60 (bvxor node_0x7ffff2b84700 (_ bv1 1)))))
 (let (($x141 (= islt_0x7ffff2bd8ce0 (ite (bvslt (_ bv1 32) ccso_node_0x7ffff2bd8ac0) (_ bv1 1) (_ bv0 1)))))
 (let (($x1076 (= node_0x7ffff2b84700 islt_0x7ffff2bd8ce0)))
 (let (($x1630 (= R0x7ffff2b92b90 xor_0x7ffff2b92da0)))
 (let (($x158699 (= xor_0x7ffff2b92da0 (bvxor node_0x7ffff2b85d10 (_ bv1 1)))))
 (let (($x1590 (= node_0x7ffff2b85d10 islt_0x7ffff2bd9150)))
 (let (($x148 (= islt_0x7ffff2bd9150 (ite (bvslt (_ bv0 32) node_0x7ffff2bc15c0) (_ bv1 1) (_ bv0 1)))))
 (let (($x1668 (= node_0x7ffff2bc15c0 f2si_0x7ffff2bc1760)))
 (let ((?x152 ((_ extract 31 0) node_0x7ffff2bc1210)))
 (let (($x153 (= f2si_0x7ffff2bc1760 ?x152)))
 (let (($x1447 (= node_0x7ffff2bc1210 fadd_0x7ffff2bc1390)))
 (let (($x159 (= fadd_0x7ffff2bc1390 (bvadd node_0x7ffff2bc0df0 (_ bv1 64)))))
 (let (($x1489 (= node_0x7ffff2bc0df0 fdiv_0x7ffff2bc0f90)))
 (let (($x1742 (= node_0x7ffff2bbbd50 fmul_0x7ffff2bbbeb0)))
 (let (($x203 (= ccso_node_0x7ffff2bbb910 (_ bv0 64))))
 (let (($x202 (= node_0x7ffff2bba980 (_ bv0 64))))
 (let (($x204 (or $x202 $x203)))
 (let ((?x200 (bvmul node_0x7ffff2bba980 ccso_node_0x7ffff2bbb910)))
 (let (($x207 (and (= fmul_0x7ffff2bbbeb0 ?x200) (or $x204 (and (distinct fmul_0x7ffff2bbbeb0 (_ bv0 64)) true)))))
 (let (($x1926 (= node_0x7ffff2bba980 fdiv_0x7ffff2bbab20)))
 (let (($x217 (or (or (= (_ bv1 64) (_ bv0 64)) (= node_0x7ffff2bb8dc0 (_ bv0 64))) (and (distinct fdiv_0x7ffff2bbab20 (_ bv0 64)) true))))
 (let (($x218 (and (= fdiv_0x7ffff2bbab20 (bvsdiv (_ bv1 64) node_0x7ffff2bb8dc0)) $x217)))
 (let (($x1089 (= node_0x7ffff2bb8dc0 LdMem_0x7ffff2bb8f40)))
 (let (($x353 (= LdMem_0x7ffff2bb8f40 StMem_0x7ffff2baf4a0)))
 (let (($x171 (or (or (= node_0x7ffff2bb5b00 (_ bv0 64)) (= node_0x7ffff2bbbd50 (_ bv0 64))) (and (distinct fdiv_0x7ffff2bc0f90 (_ bv0 64)) true))))
 (let (($x165 (= fdiv_0x7ffff2bc0f90 (bvsdiv node_0x7ffff2bb5b00 node_0x7ffff2bbbd50))))
 (let (($x172 (and $x165 $x171)))
 (let (($x1948 (= node_0x7ffff2bb5b00 fsub_0x7ffff2bb5ca0)))
 (let (($x1806 (= node_0x7ffff2bb56b0 LdMem_0x7ffff2bb5830)))
 (let (($x1673 (= StMem_0x19689e90 pcso_node_0xbd64880)))
 (let (($x1911 (= LdMem_0x7ffff2bb5830 StMem_0x19689e90)))
 (let (($x178 (= fsub_0x7ffff2bb5ca0 (bvsub node_0x7ffff2bb4e90 node_0x7ffff2bb56b0))))
 (let (($x1756 (= node_0x7ffff2bb4e90 LdMem_0x7ffff2bb5010)))
 (let (($x933 (= StMem_0xbd62f80 pcso_node_0x196dad70)))
 (let (($x1563 (= LdMem_0x7ffff2bb5010 StMem_0xbd62f80)))
 (let (($x874 (= R0x7ffff2b93bc0 and_0x7ffff2b93fa0)))
 (let (($x1235 (= R0x7ffff2b93670 xor_0x7ffff2b938b0)))
 (let (($x158675 (= xor_0x7ffff2b938b0 (bvxor node_0x7ffff2b91e50 (_ bv1 1)))))
 (let (($x160448 (= islt_0x7ffff2be8e60 (ite (bvslt (_ bv1 32) node_0x7ffff2bc15c0) (_ bv1 1) (_ bv0 1)))))
 (let (($x1062 (= node_0x7ffff2b91e50 islt_0x7ffff2be8e60)))
 (let (($x158695 (= and_0x7ffff2b93fa0 (bvand R0x7ffff2b90ab0 R0x7ffff2b93670))))
 (let (($x91 (= R0x7ffff2b90ab0 or_0x7ffff2b90e20)))
 (let ((?x157993 (bvor R0x7ffff2b8f900 R0x7ffff2b90450)))
 (let (($x158013 (= or_0x7ffff2b90e20 ?x157993)))
 (let (($x2185 (= R0x7ffff2b8f900 and_0x7ffff2b8fcc0)))
 (let (($x157929 (= and_0x7ffff2b8fcc0 (bvand R0x7ffff2b86230 R0x7ffff2b8f450))))
 (let (($x2231 (= R0x7ffff2b86230 and_0x7ffff2b86540)))
 (let (($x2224 (= R0x7ffff2b85ed0 node_0x7ffff2b85d10)))
 (let (($x157762 (= and_0x7ffff2b86540 (bvand R0x7ffff2b85620 R0x7ffff2b85ed0))))
 (let (($x1873 (= R0x7ffff2b8f450 xor_0x7ffff2b8f660)))
 (let (($x160026 (= xor_0x7ffff2b8f660 (bvxor node_0x7ffff2b868b0 (_ bv1 1)))))
 (let (($x1435 (= node_0x7ffff2b868b0 islt_0x7ffff2bd9550)))
 (let ((?x231 (ite (bvslt (_ bv0 32) node_0x7ffff2bc21e0) (_ bv1 1) (_ bv0 1))))
 (let (($x232 (= islt_0x7ffff2bd9550 ?x231)))
 (let (($x1263 (= node_0x7ffff2bc21e0 f2si_0x7ffff2bc2380)))
 (let ((?x236 ((_ extract 31 0) node_0x7ffff2bc1e30)))
 (let (($x237 (= f2si_0x7ffff2bc2380 ?x236)))
 (let (($x2206 (= node_0x7ffff2bc1e30 fadd_0x7ffff2bc1fb0)))
 (let (($x242 (= fadd_0x7ffff2bc1fb0 (bvadd node_0x7ffff2bc1a00 (_ bv1 64)))))
 (let (($x2218 (= node_0x7ffff2bc1a00 fdiv_0x7ffff2bc1ba0)))
 (let (($x251 (or (or (= node_0x7ffff2bb6fd0 (_ bv0 64)) (= node_0x7ffff2bbbd50 (_ bv0 64))) (and (distinct fdiv_0x7ffff2bc1ba0 (_ bv0 64)) true))))
 (let (($x247 (= fdiv_0x7ffff2bc1ba0 (bvsdiv node_0x7ffff2bb6fd0 node_0x7ffff2bbbd50))))
 (let (($x252 (and $x247 $x251)))
 (let (($x2233 (= node_0x7ffff2bb6fd0 fsub_0x7ffff2bb7170)))
 (let (($x1919 (= node_0x7ffff2bb6b80 LdMem_0x7ffff2bb6d00)))
 (let (($x1490 (= StMem_0xbd64aa0 pcso_node_0xbda11c0)))
 (let (($x1669 (= LdMem_0x7ffff2bb6d00 StMem_0xbd64aa0)))
 (let (($x258 (= fsub_0x7ffff2bb7170 (bvsub node_0x7ffff2bb6300 node_0x7ffff2bb6b80))))
 (let (($x2235 (= node_0x7ffff2bb6300 LdMem_0x7ffff2bb6480)))
 (let (($x1043 (= StMem_0xbda29e0 pcso_node_0x196daeb0)))
 (let (($x1529 (= LdMem_0x7ffff2bb6480 StMem_0xbda29e0)))
 (let (($x1304 (= R0x7ffff2b90450 and_0x7ffff2b90870)))
 (let (($x1214 (= R0x7ffff2b8ff00 xor_0x7ffff2b90140)))
 (let (($x157924 (= xor_0x7ffff2b90140 (bvxor node_0x7ffff2b8e5c0 (_ bv1 1)))))
 (let ((?x157903 (ite (bvslt (_ bv1 32) node_0x7ffff2bc21e0) (_ bv1 1) (_ bv0 1))))
 (let (($x157904 (= islt_0x7ffff2be8250 ?x157903)))
 (let (($x1727 (= node_0x7ffff2b8e5c0 islt_0x7ffff2be8250)))
 (let (($x157774 (= and_0x7ffff2b90870 (bvand R0x7ffff2b8de80 R0x7ffff2b8ff00))))
 (let (($x965 (= R0x7ffff2b8de80 or_0x7ffff2b8e230)))
 (let (($x1771 (= R0x7ffff2b8d800 and_0x7ffff2b8dc40)))
 (let (($x1558 (= R0x7ffff2b8d2b0 xor_0x7ffff2b8d4f0)))
 (let (($x158685 (= xor_0x7ffff2b8d4f0 (bvxor node_0x7ffff2b8c520 (_ bv1 1)))))
 (let ((?x157897 (ite (bvslt (_ bv1 32) node_0x7ffff2bc2df0) (_ bv1 1) (_ bv0 1))))
 (let (($x157898 (= islt_0x7ffff2be7e30 ?x157897)))
 (let (($x1398 (= node_0x7ffff2b8c520 islt_0x7ffff2be7e30)))
 (let (($x158669 (= and_0x7ffff2b8dc40 (bvand R0x7ffff2b87990 R0x7ffff2b8d2b0))))
 (let (($x1491 (= R0x7ffff2b87990 and_0x7ffff2b87d20)))
 (let (($x1710 (= R0x7ffff2b876a0 node_0x7ffff2b874e0)))
 (let (($x157750 (= and_0x7ffff2b87d20 (bvand R0x7ffff2b86dd0 R0x7ffff2b876a0))))
 (let ((?x157948 (bvor R0x7ffff2b8cc70 R0x7ffff2b8d800)))
 (let (($x157926 (= or_0x7ffff2b8e230 ?x157948)))
 (let (($x1621 (= R0x7ffff2b8cc70 and_0x7ffff2b8d070)))
 (let (($x158671 (= and_0x7ffff2b8d070 (bvand R0x7ffff2b86dd0 R0x7ffff2b8c750))))
 (let (($x376 (= R0x7ffff2b86dd0 and_0x7ffff2b87120)))
 (let (($x1661 (= R0x7ffff2b86a70 node_0x7ffff2b868b0)))
 (let (($x157756 (= and_0x7ffff2b87120 (bvand R0x7ffff2b86230 R0x7ffff2b86a70))))
 (let (($x997 (= R0x7ffff2b8c750 xor_0x7ffff2b8c960)))
 (let (($x158683 (= xor_0x7ffff2b8c960 (bvxor node_0x7ffff2b874e0 (_ bv1 1)))))
 (let (($x1141 (= node_0x7ffff2b874e0 islt_0x7ffff2bd98c0)))
 (let ((?x278 (ite (bvslt (_ bv0 32) node_0x7ffff2bc2df0) (_ bv1 1) (_ bv0 1))))
 (let (($x279 (= islt_0x7ffff2bd98c0 ?x278)))
 (let (($x2256 (= node_0x7ffff2bc2df0 f2si_0x7ffff2bc2f90)))
 (let ((?x283 ((_ extract 31 0) node_0x7ffff2bc2a20)))
 (let (($x284 (= f2si_0x7ffff2bc2f90 ?x283)))
 (let (($x497 (= node_0x7ffff2bc2a20 fadd_0x7ffff2bc2bc0)))
 (let (($x289 (= fadd_0x7ffff2bc2bc0 (bvadd node_0x7ffff2bc2620 (_ bv1 64)))))
 (let (($x1808 (= node_0x7ffff2bc2620 fdiv_0x7ffff2bc27c0)))
 (let (($x298 (or (or (= node_0x7ffff2bb8480 (_ bv0 64)) (= node_0x7ffff2bbbd50 (_ bv0 64))) (and (distinct fdiv_0x7ffff2bc27c0 (_ bv0 64)) true))))
 (let (($x294 (= fdiv_0x7ffff2bc27c0 (bvsdiv node_0x7ffff2bb8480 node_0x7ffff2bbbd50))))
 (let (($x299 (and $x294 $x298)))
 (let (($x1660 (= node_0x7ffff2bb8480 fsub_0x7ffff2bb8620)))
 (let (($x1666 (= node_0x7ffff2bb8010 LdMem_0x7ffff2bb81b0)))
 (let (($x1768 (= LdMem_0x7ffff2bb81b0 StMem_0xbdb5ca0)))
 (let (($x305 (= fsub_0x7ffff2bb8620 (bvsub node_0x7ffff2bb77a0 node_0x7ffff2bb8010))))
 (let (($x1511 (= node_0x7ffff2bb77a0 LdMem_0x7ffff2bb7940)))
 (let (($x1667 (= StMem_0xbdac0c0 pcso_node_0x196daff0)))
 (let (($x1174 (= LdMem_0x7ffff2bb7940 StMem_0xbdac0c0)))
 (and (or (not (= R0x7ffff2b827c0 (_ bv1 1))) $x1174) $x1174 $x1667 $x1511 $x305 (or (not (= R0x7ffff2b827c0 (_ bv1 1))) $x1768) $x1768 (= StMem_0xbdb5ca0 pcso_node_0xbdb5b20) $x1666 $x1660 $x299 $x1808 $x289 $x497 $x284 $x2256 $x279 $x1141 $x158683 $x997 $x157756 $x1661 $x376 $x158671 $x1621 $x157926 $x157750 $x1710 $x1491 $x158669 $x1398 $x157898 $x158685 $x1558 $x1771 $x965 $x157774 $x1727 $x157904 $x157924 $x1214 $x1304 (or (not (= R0x7ffff2b827c0 (_ bv1 1))) $x1529) $x1529 $x1043 $x2235 $x258 (or (not (= R0x7ffff2b827c0 (_ bv1 1))) $x1669) $x1669 $x1490 $x1919 $x2233 $x252 $x2218 $x242 $x2206 $x237 $x1263 $x232 $x1435 $x160026 $x1873 $x157762 $x2224 $x2231 $x157929 $x2185 $x158013 $x91 $x158695 $x1062 $x160448 $x158675 $x1235 $x874 (or (not (= R0x7ffff2b827c0 (_ bv1 1))) $x1563) $x1563 $x933 $x1756 $x178 (or (not (= R0x7ffff2b827c0 (_ bv1 1))) $x1911) $x1911 $x1673 $x1806 $x1948 $x172 (or (not (= R0x7ffff2b827c0 (_ bv1 1))) $x353) $x353 $x1089 $x218 $x1926 $x207 $x1742 $x1489 $x159 $x1447 $x153 $x1668 $x148 $x1590 $x158699 $x1630 $x1076 $x141 $x157781 $x1589 $x157777 $x1717 $x1579 (= node_0x7ffff2b84430 islt_0x7ffff2bd6840) $x69 $x157772 $x1176 $x157768 $x2295 $x158630 $x2291 $x158691 (= R0x7ffff2b941e0 or_0x7ffff2b94510) (or (not (= R0x7ffff2b941e0 (_ bv1 1))) $x872) $x872)))))))))))))))))))))))))))))))))))))))))))))))))))))))))))))))))))))))))))))))))))))))))))))))))))))))))))))))))))))))))))))))))))))
(assert
 (= parg_node_0x1151b690_CS0x4041bb0 node_0x196eeb60))
(assert
 (let (($x784 (= node_0x196eeb60 LdMem_0x196eca10)))
 (let (($x1826 (= StMem_0x196dbc40 parg_node_0x196dbd50)))
 (let (($x1922 (= LdMem_0x196eca10 StMem_0x196dbc40)))
 (and (or (not (= R0x7ffff2b827c0 (_ bv1 1))) $x1922) $x1922 $x1826 $x784)))))
(assert
 (= return_node_0x7ffff2c309b0_CS0x4041bb0 ccso_node_0x7ffff2bd6620))
(assert
 (= parg_node_0x1151b690_CS0x4049a80 node_0x19704cf0))
(assert
 (let (($x1854 (= node_0x19704cf0 LdMem_0x19702970)))
 (let (($x1680 (= LdMem_0x19702970 StMem_0x196dbc40)))
 (and (or (not (= R0x7ffff2b827c0 (_ bv1 1))) $x1680) $x1680 $x1854))))
(assert
 (= return_node_0x7ffff2c309b0_CS0x4049a80 ccso_node_0x7ffff2bd8ac0))
(assert
 (= parg_node_0x195bba20_CS0x403bd28 node_0x196dac30))
(assert
 (let (($x1877 (= node_0x196dac30 LdMem_0x196d8ae0)))
 (let (($x1492 (= StMem_0xbd58e90 pcso_node_0xbd58cb0)))
 (let (($x1227 (= LdMem_0x196d8ae0 StMem_0xbd58e90)))
 (and (or (not (= R0x7ffff2b827c0 (_ bv1 1))) $x1227) $x1227 $x1492 $x1877)))))
(assert
 (= parg_node_0x195bbc60_CS0x403bd28 node_0x196d99c0))
(assert
 (let (($x1005 (= node_0x196d99c0 LdMem_0x196d94a0)))
 (let (($x1213 (= StMem_0x196d9610 parg_node_0xbd426c0)))
 (let (($x897 (= LdMem_0x196d94a0 StMem_0x196d9610)))
 (and (or (not (= R0x7ffff2b827c0 (_ bv1 1))) $x897) $x897 $x1213 $x1005)))))
(assert
 (= node_0x195bd300_CS0x403bd28 pcso_node_0x196dad70))
(assert
 (= parg_node_0x17ed9da0_CS0x403bb38 node_0xbda00c0))
(assert
 (let (($x1055 (= node_0xbda00c0 LdMem_0x196d8670)))
 (let (($x1555 (= StMem_0x196d7a70 pcso_node_0x196d78f0)))
 (let (($x2001 (= LdMem_0x196d8670 StMem_0x196d7a70)))
 (and (or (not (= R0x7ffff2b827c0 (_ bv1 1))) $x2001) $x2001 $x1555 $x1055)))))
(assert
 (= parg_node_0x17ed9fe0_CS0x403bb38 node_0xbd5efa0))
(assert
 (let (($x1618 (= node_0xbd5efa0 LdMem_0xbda72f0)))
 (let (($x350 (= StMem_0xbdb3a40 parg_node_0xbd420c0)))
 (let (($x1623 (= LdMem_0xbda72f0 StMem_0xbdb3a40)))
 (and (or (not (= R0x7ffff2b827c0 (_ bv1 1))) $x1623) $x1623 $x350 $x1618)))))
(assert
 (= node_0x17edabf0_CS0x403bb38 pcso_node_0xbd64880))
(assert
 (= parg_node_0x195bbf90_CS0x403bd28 node_0x196d8e80))
(assert
 (let (($x1406 (= node_0x196d8e80 LdMem_0x196d8c20)))
 (let (($x893 (= LdMem_0x196d8c20 StMem_0xbdc3c50)))
 (and (or (not (= R0x7ffff2b827c0 (_ bv1 1))) $x893) $x893 (= StMem_0xbdc3c50 pcso_node_0xbdc3aa0) $x1406))))
(assert
 (= parg_node_0x195bc4b0_CS0x403bd28 node_0x196da0e0))
(assert
 (let (($x1552 (= node_0x196da0e0 LdMem_0x196d9bc0)))
 (let (($x1974 (= StMem_0x196d9d30 parg_node_0xbd501c0)))
 (let (($x1436 (= LdMem_0x196d9bc0 StMem_0x196d9d30)))
 (and (or (not (= R0x7ffff2b827c0 (_ bv1 1))) $x1436) $x1436 $x1974 $x1552)))))
(assert
 (= node_0x195bd980_CS0x403bd28 pcso_node_0x196daeb0))
(assert
 (= parg_node_0x17eda220_CS0x403bb38 node_0xbd42540))
(assert
 (let (($x1745 (= node_0xbd42540 LdMem_0xbd41d50)))
 (let (($x155404 (= LdMem_0xbd41d50 StMem_0x196d7d60)))
 (and (or (not (= R0x7ffff2b827c0 (_ bv1 1))) $x155404) $x155404 (= StMem_0x196d7d60 pcso_node_0x196d7be0) $x1745))))
(assert
 (= parg_node_0x17eda640_CS0x403bb38 node_0xbd4ffc0))
(assert
 (let (($x1729 (= node_0xbd4ffc0 LdMem_0xbd67200)))
 (let (($x1144 (= LdMem_0xbd67200 StMem_0xbd41ad0)))
 (and (or (not (= R0x7ffff2b827c0 (_ bv1 1))) $x1144) $x1144 (= StMem_0xbd41ad0 parg_node_0xbd5f240) $x1729))))
(assert
 (= node_0x17edaed0_CS0x403bb38 pcso_node_0xbda11c0))
(assert
 (let (($x1716 (= node_0x197c21f0 LdMem_0x197c23f0)))
 (let (($x128 (= node_0x7ffff2b84430 (_ bv1 1))))
 (let (($x134 (or (not $x128) (and (not (= node_0x7ffff2b84700 (_ bv1 1))) $x128))))
 (let (($x127 (= node_0x7ffff2b85d10 (_ bv1 1))))
 (let (($x142 (and $x127 $x134)))
 (let (($x125 (= node_0x7ffff2b868b0 (_ bv1 1))))
 (let (($x226 (and $x125 $x142)))
 (let (($x123 (= node_0x7ffff2b874e0 (_ bv1 1))))
 (let (($x273 (and $x123 $x226)))
 (let (($x157893 (or (and (not $x123) $x226) (and (not (= node_0x7ffff2b8c520 (_ bv1 1))) $x273))))
 (let (($x160484 (or (and (not $x125) $x142) (and (not (= node_0x7ffff2b8e5c0 (_ bv1 1))) $x157893))))
 (let (($x158506 (or (and (not $x127) $x134) (and (not (= node_0x7ffff2b91e50 (_ bv1 1))) $x160484))))
 (and (or (not $x158506) $x1716) $x1716))))))))))))))
(assert
 (let (($x128 (= node_0x7ffff2b84430 (_ bv1 1))))
 (let (($x134 (or (not $x128) (and (not (= node_0x7ffff2b84700 (_ bv1 1))) $x128))))
 (let (($x127 (= node_0x7ffff2b85d10 (_ bv1 1))))
 (let (($x142 (and $x127 $x134)))
 (let (($x125 (= node_0x7ffff2b868b0 (_ bv1 1))))
 (let (($x226 (and $x125 $x142)))
 (let (($x123 (= node_0x7ffff2b874e0 (_ bv1 1))))
 (let (($x273 (and $x123 $x226)))
 (let (($x157893 (or (and (not $x123) $x226) (and (not (= node_0x7ffff2b8c520 (_ bv1 1))) $x273))))
 (let (($x160484 (or (and (not $x125) $x142) (and (not (= node_0x7ffff2b8e5c0 (_ bv1 1))) $x157893))))
 (or (and (not $x127) $x134) (and (not (= node_0x7ffff2b91e50 (_ bv1 1))) $x160484)))))))))))))
(assert
 (and (distinct node_0x197c21f0 (_ bv0 64)) true))
(maximize LdMem_0x196d9bc0)
(maximize f2si_0x7ffff2bc1760)
(minimize node_0x7ffff2bc2620)
(maximize pcso_node_0xbda11c0)
(maximize xor_0x7ffff2b90140)
(minimize xor_0x7ffff2b8d4f0)
(maximize LdMem_0xbd67200)
(maximize fadd_0x7ffff2bc2bc0)
(minimize StMem_0x196d7a70)
(maximize R0x7ffff2b86a70)
(maximize LdMem_0x7ffff2bb5830)
(minimize fadd_0x7ffff2bc2bc0)
(minimize R0x7ffff2b8cc70)
(minimize StMem_0xbdb3a40)
(maximize parg_node_0xbd501c0)
(maximize node_0x7ffff2bc15c0)
(maximize and_0x7ffff2b90870)
(maximize parg_node_0x195bbf90_CS0x403bd28)
(maximize fadd_0x7ffff2bc1fb0)
(minimize node_0x7ffff2b8e5c0)
(minimize or_0x7ffff2b85930)
(minimize node_0x197c21f0)
(minimize StMem_0xbda29e0)
(maximize R0x7ffff2b8ff00)
(minimize parg_node_0x1151b690_CS0x4049a80)
(minimize StMem_0xbd41ad0)
(minimize parg_node_0x195bba20_CS0x403bd28)
(minimize StMem_0x196d9d30)
(maximize node_0xbda00c0)
(minimize R0x7ffff2b83ef0)
(maximize islt_0x7ffff2be8e60)
(maximize R0x7ffff2b848f0)
(minimize StMem_0x196dbc40)
(minimize parg_node_0x1151b690_CS0x4041bb0)
(minimize xor_0x7ffff2b938b0)
(maximize node_0x7ffff2bb5b00)
(maximize node_0x7ffff2bb8480)
(maximize islt_0x7ffff2bd98c0)
(maximize fsub_0x7ffff2bb7170)
(minimize and_0x7ffff2b93430)
(minimize StMem_0x196d7d60)
(maximize LdMem_0x7ffff2bb6480)
(minimize R0x7ffff2b86230)
(minimize node_0x7ffff2b868b0)
(maximize or_0x7ffff2b94510)
(maximize LdMem_0x196eca10)
(minimize node_0x7ffff2bc2a20)
(minimize xor_0x7ffff2b83a60)
(minimize and_0x7ffff2b8fcc0)
(maximize node_0x7ffff2bc0df0)
(maximize fdiv_0x7ffff2bc1ba0)
(minimize node_0x195bd300_CS0x403bd28)
(minimize node_0x7ffff2bb6fd0)
(minimize node_0x7ffff2bc21e0)
(maximize node_0x195bd300_CS0x403bd28)
(maximize islt_0x7ffff2be7e30)
(minimize LdMem_0x196d94a0)
(maximize parg_node_0x196dbd50)
(maximize f2si_0x7ffff2bc2f90)
(minimize LdMem_0x7ffff2bb5010)
(minimize R0x7ffff2b84e00)
(minimize node_0x7ffff2bb8dc0)
(maximize parg_node_0xbd420c0)
(minimize node_0x196da0e0)
(maximize LdMem_0x196d8670)
(maximize pcso_node_0xbd64880)
(maximize islt_0x7ffff2be8250)
(minimize LdMem_0x7ffff2bb6480)
(maximize LdMem_0xbda72f0)
(minimize node_0xbd42540)
(check-sat)
(get-objectives)
